
******************************************************************************
This program contains Ipopt, a library for large-scale nonlinear optimization.
 Ipopt is released as open source code under the Eclipse Public License (EPL).
         For more information visit http://projects.coin-or.org/Ipopt
******************************************************************************

NOTE: You are using Ipopt by default with the MUMPS linear solver.
      Other linear solvers might be more efficient (see Ipopt documentation).


This is Ipopt version 3.11.2, running with linear solver mumps.

Number of nonzeros in equality constraint Jacobian...:    25786
Number of nonzeros in inequality constraint Jacobian.:        0
Number of nonzeros in Lagrangian Hessian.............:        0

Total number of variables............................:     3200
                     variables with only lower bounds:        0
                variables with lower and upper bounds:     3200
                     variables with only upper bounds:        0
Total number of equality constraints.................:     3100
Total number of inequality constraints...............:        0
        inequality constraints with only lower bounds:        0
   inequality constraints with lower and upper bounds:        0
        inequality constraints with only upper bounds:        0

iter    objective    inf_pr   inf_du lg(mu)  ||d||  lg(rg) alpha_du alpha_pr  ls
   0 -1.8100000e+001 7.83e+005 1.00e-002   0.0 0.00e+000    -  0.00e+000 0.00e+000   0
   1 -2.1325921e+001 7.83e+005 1.25e+003   8.8 5.60e+009    -  3.60e-009 2.22e-009f  1
   2 -1.9442689e+001 7.83e+005 8.97e+008   5.8 2.99e+005    -  9.90e-001 2.43e-005f  1
   3 -1.9950658e+001 7.83e+005 1.40e+013   9.7 5.46e+004    -  1.00e+000 1.35e-004f  2
   4 -1.5978380e+001 5.82e+005 1.66e+013   9.0 4.57e+001    -  1.77e-001 2.57e-001f  1
   5 -1.6476459e+001 5.34e+005 1.07e+014  10.8 6.33e+001    -  9.84e-001 8.36e-002f  1
   6 -1.4746138e+001 4.40e+005 4.66e+014  11.4 3.02e+001    -  1.00e+000 1.75e-001f  1
   7 -1.3059883e+001 3.05e+005 1.76e+015  12.0 1.85e+001    -  1.00e+000 3.08e-001f  1
   8 -1.2544114e+001 2.15e+005 7.17e+015  12.4 1.48e+001    -  1.00e+000 2.95e-001f  1
   9 -1.2045049e+001 7.18e+004 8.08e+015  12.7 4.62e+000    -  1.00e+000 6.66e-001f  1
iter    objective    inf_pr   inf_du lg(mu)  ||d||  lg(rg) alpha_du alpha_pr  ls
  10 -1.3003029e+001 1.29e+002 1.33e+016   6.7 3.68e+000    -  3.12e-001 1.00e+000f  1
  11 -1.4502033e+001 4.92e+001 1.44e+016  11.2 3.88e+000    -  3.19e-001 1.00e+000f  1
  12 -1.6449185e+001 1.89e+001 1.36e+014  12.1 7.91e+000    -  1.00e+000 1.00e+000f  1
  13 -1.8779485e+001 7.00e+000 6.27e+013  11.9 5.65e+000    -  9.92e-001 1.00e+000f  1
  14 -2.0381702e+001 2.46e+000 4.00e+013  11.3 3.33e+000    -  9.96e-001 1.00e+000f  1
  15 -2.3108864e+001 2.61e+000 1.77e+013  10.9 2.21e+001    -  1.00e+000 1.00e+000f  1
  16 -2.5405283e+001 2.07e-001 4.32e+012  10.2 8.35e+000    -  9.96e-001 1.00e+000f  1
  17 -2.7444883e+001 1.62e-001 2.59e+012   9.3 5.60e+000    -  9.98e-001 1.00e+000h  1
  18 -2.8719209e+001 2.12e-001 2.54e+012   9.1 9.04e+000    -  1.00e+000 6.70e-001h  1
  19 -2.9751409e+001 5.92e+002 2.67e+012   9.4 8.52e+000    -  8.59e-001 5.67e-001H  1
iter    objective    inf_pr   inf_du lg(mu)  ||d||  lg(rg) alpha_du alpha_pr  ls
  20 -3.0679652e+001 8.05e+001 2.16e+012   9.1 5.56e+000    -  7.54e-001 8.02e-001H  1
  21 -3.0706756e+001 7.54e+001 1.12e+013   8.3 2.55e+000    -  1.00e+000 6.25e-002f  5
  22 -3.1102422e+001 1.42e-001 9.73e+011   7.4 2.35e+000    -  1.00e+000 1.00e+000h  1
  23 -3.1149221e+001 7.73e-003 8.42e+010   6.7 4.92e-001    -  1.00e+000 1.00e+000f  1
  24 -3.1149026e+001 5.44e-002 3.11e+005   4.6 1.67e-002    -  9.88e-001 1.00e+000f  1
  25 -3.1149026e+001 5.68e-004 3.12e+003  -1.0 2.82e-006    -  9.90e-001 1.00e+000h  1
  26 -3.0990565e+001 4.66e-001 8.10e+005   2.9 3.32e+000    -  6.08e-001 1.00e+000f  1
  27 -3.0887092e+001 4.67e+001 1.24e+006   2.2 8.75e-001    -  8.38e-001 1.00e+000f  1
  28 -3.0824137e+001 7.12e+001 1.67e+005   1.5 5.88e-001    -  9.36e-001 1.00e+000f  1
  29 -3.0705625e+001 1.97e-002 1.06e+005   0.9 2.22e+000    -  7.60e-001 1.00e+000f  1
iter    objective    inf_pr   inf_du lg(mu)  ||d||  lg(rg) alpha_du alpha_pr  ls
  30 -3.0571344e+001 5.78e-003 2.62e+004   0.2 3.13e-001    -  8.37e-001 1.00e+000f  1
  31 -3.0372325e+001 1.41e-002 8.20e+003  -0.5 6.26e-001    -  7.80e-001 1.00e+000f  1
  32 -3.0318936e+001 8.04e-003 1.05e+000  -1.2 4.94e-001    -  1.00e+000 1.00e+000f  1
  33 -3.1230885e+001 3.31e-001 3.08e+001  -1.9 3.70e+000    -  6.44e-001 5.74e-001f  1
  34 -3.1229388e+001 2.95e-001 2.58e+002  -3.1 1.29e-001    -  1.00e+000 1.08e-001h  1
  35 -3.1206784e+001 1.46e-001 1.32e+002  -4.2 2.60e-001    -  1.00e+000 5.04e-001h  1
  36 -3.1185486e+001 6.15e-005 2.06e-001  -6.1 1.47e-001    -  1.00e+000 1.00e+000h  1
  37 -3.1187671e+001 8.32e-005 2.66e-002  -8.2 2.66e-002    -  1.00e+000 1.00e+000h  1
  38 -3.1359041e+001 3.12e-002 5.55e+000  -6.1 1.77e+002  -4.0 8.98e-002 1.21e-002f  1
  39 -3.1677477e+001 1.45e-001 5.51e+000  -5.1 1.97e+004    -  3.03e-007 2.26e-004f  1
iter    objective    inf_pr   inf_du lg(mu)  ||d||  lg(rg) alpha_du alpha_pr  ls
  40 -3.1686459e+001 1.45e-001 5.51e+000  -5.1 1.45e+004    -  1.97e-004 9.58e-006f  1
  41 -3.1686459e+001 1.45e-001 5.55e+000 -11.0 2.44e-001    -  3.49e-002 1.77e-005h  1
  42 -3.1689121e+001 1.45e-001 5.51e+000  -5.8 1.16e+002    -  1.00e+000 4.11e-004f  1
  43 -3.1915066e+001 2.01e-001 5.31e+000  -3.8 1.15e+002    -  2.18e-002 3.52e-002f  1
  44 -3.2063918e+001 2.82e-001 5.60e+000  -3.3 2.71e+002    -  1.00e+000 5.65e-002f  1
  45 -3.2063907e+001 2.82e-001 5.14e+000  -9.2 1.57e-001    -  9.32e-002 9.20e-004h  1
  46 -3.2019626e+001 4.62e-004 3.19e+001  -2.7 2.68e-001    -  3.39e-001 1.00e+000f  1
  47 -3.2031707e+001 5.15e-004 4.29e+001  -3.1 2.16e+000    -  1.00e+000 7.14e-002f  1
  48 -3.2136544e+001 1.23e-002 1.23e+001  -3.8 1.90e+000    -  1.00e+000 7.18e-001f  1
  49 -3.2348906e+001 8.06e-002 3.28e+001  -2.3 8.71e+001    -  9.31e-001 4.20e-002f  1
iter    objective    inf_pr   inf_du lg(mu)  ||d||  lg(rg) alpha_du alpha_pr  ls
  50 -3.2554601e+001 1.33e+000 1.81e+000  -1.9 7.62e+000    -  1.00e+000 1.00e+000f  1
  51 -3.2765267e+001 1.42e-001 2.98e-001  -2.1 4.09e+000    -  9.93e-001 1.00e+000h  1
  52 -3.2774165e+001 1.43e-004 5.41e-001  -4.0 8.94e-003    -  9.93e-001 1.00e+000h  1
  53 -3.2783563e+001 8.59e-005 9.41e-003  -5.9 9.41e-003    -  1.00e+000 1.00e+000f  1
  54 -3.2943468e+001 1.68e-002 2.49e+000  -3.8 4.80e+002    -  1.00e+000 2.89e-003f  1
  55 -3.3327877e+001 6.97e-001 1.72e+001  -2.3 2.32e+002    -  4.72e-001 4.81e-002f  1
  56 -3.3273863e+001 3.54e-001 1.88e+001  -2.3 6.38e+000    -  1.00e+000 5.00e-001f  2
  57 -3.3440820e+001 2.30e-001 1.48e+000  -2.6 6.95e+000    -  9.99e-001 7.03e-001h  1
  58 -3.3407080e+001 4.72e-002 8.00e-002  -3.0 1.84e+000  -4.5 9.98e-001 1.00e+000h  1
  59 -3.3432149e+001 2.49e-001 4.30e-001  -3.4 2.25e+000    -  1.00e+000 9.28e-001h  1
iter    objective    inf_pr   inf_du lg(mu)  ||d||  lg(rg) alpha_du alpha_pr  ls
  60 -3.3430804e+001 2.91e-002 5.33e-002  -3.5 1.41e+000    -  1.00e+000 1.00e+000h  1
  61 -3.3434315e+001 2.85e-002 2.20e-002  -4.0 1.21e+000    -  9.96e-001 1.00e+000h  1
  62 -3.3435800e+001 5.15e-003 3.21e-002  -5.3 6.93e-001    -  1.00e+000 9.99e-001h  1
  63 -3.3435671e+001 7.04e-004 1.57e-002  -5.4 2.38e-001    -  1.00e+000 1.00e+000h  1
  64 -3.3435713e+001 7.23e-005 4.18e-006  -7.3 9.38e-002    -  1.00e+000 1.00e+000h  1

Number of Iterations....: 64

                                   (scaled)                 (unscaled)
Objective...............: -3.3435712561869238e+001  -3.3435712561869238e+001
Dual infeasibility......:  4.1769740759162009e-006   4.1769740759162009e-006
Constraint violation....:  3.4704995855415477e-008   7.2297942097065970e-005
Complementarity.........:  5.2139223256936409e-007   5.2139223256936409e-007
Overall NLP error.......:  5.2139223256936409e-007   7.2297942097065970e-005


Number of objective function evaluations             = 75
Number of objective gradient evaluations             = 65
Number of equality constraint evaluations            = 75
Number of inequality constraint evaluations          = 0
Number of equality constraint Jacobian evaluations   = 65
Number of inequality constraint Jacobian evaluations = 0
Number of Lagrangian Hessian evaluations             = 0
Total CPU secs in IPOPT (w/o function evaluations)   =      3.868
Total CPU secs in NLP function evaluations           =      0.996

EXIT: Optimal Solution Found.
